
20 11 20 14 20 5 14 24 14 17 24 20 20 20 17 14 14 17 5 11 14 17 5 17 5 20 17 24 5 24 5 11 20 11 20 20 24 24 11 14 17 14 24 14 24 14 11 20 11 14 5 14 14 5 20 20 17 11 11 14 17 5 20 11 11 11 24 17 5 24 20 20 11 17 24 20 24 20 14 24 20 17 20 17 17 17 17 17 20 5 17 24 17 11 17 24 14 14 11 20 20 17 17 11 17 5 17 11 14 14 14 14 17 11 11 11 24 24 24 24 5 14 11 20 20 11 5 24 11 5 17 11 24 5 14 14 17 5 20 17 17 20 20 14 20 11 11 5 17 5 
